100 300 164 200 184 195 200 190 112 193 186 171 134 168 150 190 181 146 136 136 152 102 106 135 169 126 177 151 169 194 100 195 114 131 194 199 192 159 154 103 117 106 140 151 174 157 106 155 169 109 191 120 111 163 155 180 155 131 130 123 191 198 184 105 128 178 170 119 102 190 189 120 196 196 171 170 152 144 191 187 153 147 106 164 109 127 109 130 124 139 154 115 102 137 187 130 181 156 115 184 145 104 